7
2147483647 78 61 23 55 68 45 
78 2147483647 82 10 41 15 54 
61 82 2147483647 60 63 94 75 
23 10 60 2147483647 56 69 83 
55 41 63 56 2147483647 16 15 
68 15 94 69 16 2147483647 19 
45 54 75 83 15 19 2147483647 
